(set-option :pp.decimal true)
(set-option :pp.decimal_precision 7)
(declare-const conc1 Real)
(declare-const conc2 Real)
(declare-const conc3 Real)
(declare-const conc4 Real)
(declare-const conc5 Real)
(declare-const conc6 Real)
(declare-const conc7 Real)
(declare-const conc8 Real)
(declare-const conc9 Real)
(declare-const conc10 Real)
(declare-const conc11 Real)
(declare-const flow1 Real)
(declare-const flow2 Real)
(declare-const flow3 Real)
(declare-const flow4 Real)
(declare-const flow5 Real)
(declare-const flow6 Real)
(declare-const flow7 Real)
(declare-const flow8 Real)
(declare-const flow9 Real)
(assert (>= conc1 0))
(assert (>= conc2 0))
(assert (>= conc3 0))
(assert (>= conc4 0))
(assert (>= conc5 0))
(assert (>= conc6 0))
(assert (>= conc7 0))
(assert (>= conc8 0))
(assert (>= conc9 0))
(assert (>= conc10 0))
(assert (>= conc11 0))
(assert (= flow1 (+ (* 0.822638 conc2 conc2) (* -1. 1 conc3))))
(assert (= flow2 (+ (* 1 conc2 conc1) (* -1. 0.635997 conc4))))
(assert (= flow3 (+ (* 0.735639 conc1 conc1) (* -1. 1 conc5))))
(assert (= flow4 (+ (* 0.409511 conc1 conc4) (* -1. 1 conc6))))
(assert (= flow5 (+ (* 1 conc1 conc5) (* -1. 0.704196 conc7))))
(assert (= flow6 (+ (* 1 conc2 conc3) (* -1. 0.658563 conc8))))
(assert (= flow7 (+ (* 0.574281 conc4 conc3) (* -1. 1 conc9))))
(assert (= flow8 (+ (* 0.696851 conc2 conc8) (* -1. 1 conc10))))
(assert (= flow9 (+ (* 1 conc1 conc6) (* -1. 0.840621 conc11))))
(assert (= (+ (* -1 flow2) (* -2 flow3) (* -1 flow4) (* -1 flow5) (* -1 flow9) 1 (* -1. 0.5 conc1)) 0))
(assert (= (+ (* -2 flow1) (* -1 flow2) (* -1 flow6) (* -1 flow8) 1 (* -1. 0.5 conc2)) 0))
(assert (= (+ (* 1 flow1) (* -1 flow6) (* -1 flow7) 0 (* -1. 0.5 conc3)) 0))
(assert (= (+ (* 1 flow2) (* -1 flow4) (* -1 flow7) 0 (* -1. 0.5 conc4)) 0))
(assert (= (+ (* 1 flow3) (* -1 flow5) 0 (* -1. 0.5 conc5)) 0))
(assert (= (+ (* 1 flow4) (* -1 flow9) 0 (* -1. 0.5 conc6)) 0))
(assert (= (+ (* 1 flow5) 0 (* -1. 0.5 conc7)) 0))
(assert (= (+ (* 1 flow6) (* -1 flow8) 0 (* -1. 0.5 conc8)) 0))
(assert (= (+ (* 1 flow7) 0 (* -1. 0.5 conc9)) 0))
(assert (= (+ (* 1 flow8) 0 (* -1. 0.5 conc10)) 0))
(assert (= (+ (* 1 flow9) 0 (* -1. 0.5 conc11)) 0))
(check-sat)
(get-model)
